w = 30;
n = 28;
measures = [|13, 21,
|11, 17,
|11, 14,
|8, 14,
|5, 21,
|5, 18,
|5, 18,
|11, 7,
|4, 18,
|5, 14,
|5, 14,
|3, 21,
|3, 18,
|3, 17,
|11, 4,
|7, 6,
|5, 7,
|8, 4,
|4, 7,
|2, 12,
|3, 7,
|5, 4,
|4, 5,
|5, 3,
|3, 5,
|4, 3,
|2, 6,
|3, 4,
|];
initial_x = [0, 13, 0, 11, 19, 24, 0, 5, 16, 20, 25, 0, 3, 6, 9, 20, 0, 5, 13, 17, 19, 22, 0, 4, 9, 12, 16, 18];
initial_y = [0, 0, 21, 21, 21, 21, 42, 42, 42, 42, 42, 60, 60, 60, 60, 60, 81, 81, 81, 81, 81, 81, 93, 93, 93, 93, 93, 93];